# Solution for model count
# Objective value = 9
z#1 0
z#2 1
z#3 1
z#4 0
z#5 0
z#6 1
z#7 0
z#8 0
z#9 0
z#10 1
z#11 1
z#12 0
z#13 1
z#14 0
z#15 0
z#16 0
z#17 0
z#18 0
z#19 0
z#20 0
z#21 0
z#22 1
z#23 1
z#24 1
x#24 368
x#23 897
x#22 855
x#21 0
x#20 0
x#19 0
x#18 0
x#17 0
x#16 0
x#15 0
x#14 0
x#13 1091
x#12 0
x#11 3065
x#10 1359
x#9 0
x#8 0
x#7 0
x#6 1939
x#5 0
x#4 0
x#3 143
x#2 283
x#1 0
